c Random CNF formula
p cnf 20 40
11 9 2 0
-16 -8 9 0
9 -14 13 0
9 -10 -1 0
-19 -10 -8 0
14 -1 -10 0
-3 20 -7 0
-12 3 4 0
-2 -10 -3 0
-2 -13 3 0
6 17 18 0
18 1 16 0
1 20 12 0
-4 -5 -6 0
-3 -4 -14 0
-19 1 -5 0
-2 8 -16 0
7 9 -4 0
-15 5 14 0
-16 -14 -10 0
-17 2 7 0
-13 -16 -1 0
13 11 18 0
4 -9 -14 0
2 -10 -15 0
19 13 15 0
-14 5 -19 0
-3 -1 4 0
13 19 6 0
-15 -17 11 0
-3 10 14 0
3 20 -12 0
1 -15 -7 0
16 -1 12 0
-9 13 18 0
9 11 10 0
-7 11 4 0
-15 2 8 0
-9 -10 -15 0
4 3 10 0
